(set-logic QF_S)
(declare-fun V13 () String )
(declare-fun V9 () String )
(declare-fun V3 () String )
(declare-fun V11 () String )
(declare-fun V16 () String )
(declare-fun V10 () String )
(declare-fun V2 () String )
(declare-fun V4 () String )
(declare-fun V1 () String )
(declare-fun V14 () String )
(declare-fun V8 () String )
(declare-fun V15 () String )
(assert (= (str.++ V3 V4 ) (str.++ V1 V2 ) ) )
(assert (= (str.++ V3 V4 ) (str.++ (str.++ V9 "A" ) V10 ) ) )
(assert (= (str.++ V3 V4 ) (str.++ (str.++ V13 "A" ) V14 ) ) )
(assert (= (str.++ V8 V4 ) "sips" ) )
(assert (= (str.++ (str.++ V3 V4 ) V11 ) (str.++ (str.++ V15 ":" ) V16 ) ) )
( check-sat )
